Data path: /scratch/opt/lxu/CFLG/benchmarks/tree_A
Instance: treeA.200.10
Result path: /scratch/opt/lxu/CFLG/results/tree_A
Solver: Gurobi
Time limit: 7200
Formulation: LEFPAV
Cover: Large
julia --project=. src/main.jl /scratch/opt/lxu/CFLG/benchmarks/tree_A treeA.200.10 /scratch/opt/lxu/CFLG/results/tree_A Gurobi 7200 LEFPAV Large
The latest version of Julia in the `release` channel is 1.11.5+0.x64.linux.gnu. You currently have `1.11.4+0.x64.linux.gnu` installed. Run:

  juliaup update

in your terminal shell to install Julia 1.11.5+0.x64.linux.gnu and update the `release` channel to that version.
/scratch/opt/lxu/CFLG/benchmarks/tree_A Gurobi 7200.0 /scratch/opt/lxu/CFLG/results/tree_A treeA.200.10 LEFPAV Large
/scratch/opt/lxu/CFLG/benchmarks/tree_A/treeA.200.10

 read graph
data loaded

problem_graph/original graph: node: 200/200 edge: 209/209 dlt: 3.007579533011168 break_avg_len: 1.503789766505584 break_max_len: 1.984402562727856Vbar/V, Ebar/E(71, 200, 80, 209)
(1, 117)(1, 185)(3, 142)(3, 175)(8, 45)(8, 24)(12, 18)(12, 170)(12, 45)(18, 132)(19, 152)(19, 156)(21, 97)(21, 60)(23, 152)(23, 114)(24, 27)(24, 194)(26, 60)(26, 98)(27, 31)(27, 87)(28, 199)(28, 161)(29, 88)(29, 76)(30, 194)(30, 175)(31, 170)(32, 115)(32, 97)(34, 190)(34, 105)(39, 109)(39, 115)(40, 51)(40, 96)(41, 112)(41, 117)(42, 63)(42, 119)(51, 156)(63, 166)(65, 136)(65, 142)(68, 185)(68, 129)(69, 170)(69, 193)(69, 197)(74, 115)(74, 179)(76, 112)(77, 161)(77, 164)(87, 104)(88, 165)(96, 196)(98, 105)(98, 119)(98, 153)(104, 161)(109, 190)(109, 153)(114, 138)(120, 153)(120, 136)(129, 196)(130, 164)(130, 156)(132, 144)(138, 144)(138, 175)(138, 193)(144, 179)(165, 195)(166, 199)(185, 197)(195, 200)(196, 200)(Dict(20 => 1.0, 58 => 0.0, 28 => 0.0, 37 => 4.0, 23 => 3.0, 19 => 1.0, 22 => 1.0, 47 => 1.0, 41 => 0.0, 49 => 1.0, 11 => 1.0, 36 => 1.0, 44 => 0.0, 9 => 1.0, 45 => 2.0, 67 => 0.0, 69 => 1.0, 31 => 0.0, 43 => 0.0, 3 => 0.0, 46 => 0.0, 71 => 0.0, 57 => 0.0, 48 => 1.0, 34 => 0.0, 4 => 0.0, 70 => 4.0, 21 => 0.0, 54 => 1.0, 18 => 1.0, 26 => 0.0, 42 => 0.0), [4, 9, 11, 18, 19, 20, 26, 34, 36, 41, 42, 44, 45, 47, 49, 57, 67, 69, 3, 21, 22, 23, 28, 31, 37, 43, 46, 48, 54, 58, 70, 71], 103, 112)Set parameter TokenServer to value "solice01.zib.de"
Set parameter Threads to value 1
Set parameter OutputFlag to value 1
Gurobi Optimizer version 12.0.1 build v12.0.1rc0 (linux64 - "Debian GNU/Linux 12 (bookworm)")

CPU model: Intel(R) Xeon(R) Gold 5122 CPU @ 3.60GHz, instruction set [SSE2|AVX|AVX2|AVX512]
Thread count: 8 physical cores, 16 logical processors, using up to 1 threads

Non-default parameters:
Threads  1

Optimize a model with 215 rows, 336 columns and 560 nonzeros
Model fingerprint: 0x9897acdd
Coefficient statistics:
  Matrix range     [1e+00, 1e+00]
  Objective range  [1e+00, 1e+00]
  Bounds range     [1e+00, 1e+00]
  RHS range        [1e+00, 1e+00]
Presolve removed 215 rows and 336 columns
Presolve time: 0.02s
Presolve: All rows and columns removed
Iteration    Objective       Primal Inf.    Dual Inf.      Time
       0    3.2000000e+01   0.000000e+00   0.000000e+00      0s

Solved in 0 iterations and 0.02 seconds (0.00 work units)
Optimal objective  3.200000000e+01

User-callback calls 35, time in user-callback 0.00 sec
elapsed CPU time: 1.744629 seconds
Set parameter TokenServer to value "solice01.zib.de"
Set parameter Threads to value 1
Set parameter OutputFlag to value 1
Set parameter MIPGap to value 0.0001
Set parameter MIPGapAbs to value 0.999998
Set parameter TimeLimit to value 7198.255371

 more cuts: false 3.007579533011168 false
is_attach:trueformulation:LEFPAV0 112 0
Set parameter PreCrush to value 1

 model loaded

Gurobi Optimizer version 12.0.1 build v12.0.1rc0 (linux64 - "Debian GNU/Linux 12 (bookworm)")

CPU model: Intel(R) Xeon(R) Gold 5122 CPU @ 3.60GHz, instruction set [SSE2|AVX|AVX2|AVX512]
Thread count: 8 physical cores, 16 logical processors, using up to 1 threads

Non-default parameters:
TimeLimit  7198.255371
MIPGapAbs  0.999998
PreCrush  1
Threads  1

Optimize a model with 2976 rows, 1777 columns and 8123 nonzeros
Model fingerprint: 0x97c64a8c
Variable types: 327 continuous, 1450 integer (1450 binary)
Coefficient statistics:
  Matrix range     [1e-06, 6e+00]
  Objective range  [1e+00, 1e+00]
  Bounds range     [7e-02, 3e+00]
  RHS range        [1e-06, 6e+00]
Presolve removed 1863 rows and 1031 columns
Presolve time: 0.05s
Presolved: 1113 rows, 746 columns, 4595 nonzeros
Variable types: 133 continuous, 613 integer (613 binary)
Found heuristic solution: objective 105.0000000
Found heuristic solution: objective 104.0000000
Found heuristic solution: objective 76.0000000

Root relaxation: objective 4.534828e+01, 709 iterations, 0.01 seconds (0.01 work units)

    Nodes    |    Current Node    |     Objective Bounds      |     Work
 Expl Unexpl |  Obj  Depth IntInf | Incumbent    BestBd   Gap | It/Node Time

     0     0   45.34828    0  196   76.00000   45.34828  40.3%     -    0s
H    0     0                      60.0000000   45.34828  24.4%     -    0s
H    0     0                      58.0000000   45.34828  21.8%     -    0s
H    0     0                      57.0000000   45.34828  20.4%     -    0s
elapsed CPU time: 1.3838339337282459e13 seconds
     0     0   47.04530    0  197   57.00000   47.04530  17.5%     -    0s
H    0     0                      56.0000000   47.04530  16.0%     -    0s
elapsed CPU time: 0.005764 seconds
     0     0   47.04530    0  191   56.00000   47.04530  16.0%     -    0s
elapsed CPU time: 0.005577 seconds
     0     0   48.16667    0  157   56.00000   48.16667  14.0%     -    0s
H    0     0                      55.0000000   48.16667  12.4%     -    0s
elapsed CPU time: 0.00563 seconds
     0     0   48.16667    0  135   55.00000   48.16667  12.4%     -    0s
elapsed CPU time: 0.005531 seconds
     0     0   48.35057    0  162   55.00000   48.35057  12.1%     -    0s
H    0     0                      54.0000000   48.68182  9.85%     -    0s
elapsed CPU time: 0.005613 seconds
     0     0   48.68182    0  151   54.00000   48.68182  9.85%     -    0s
elapsed CPU time: 0.00539 seconds
     0     0   48.68182    0  160   54.00000   48.68182  9.85%     -    0s
elapsed CPU time: 0.005522 seconds
     0     0   49.00000    0  103   54.00000   49.00000  9.26%     -    0s
elapsed CPU time: 0.005456 seconds
     0     0   49.00000    0  109   54.00000   49.00000  9.26%     -    0s
elapsed CPU time: 0.005454 seconds
     0     0   49.00000    0  100   54.00000   49.00000  9.26%     -    0s
H    0     0                      53.0000000   49.00000  7.55%     -    0s
elapsed CPU time: 0.00534 seconds
     0     0   49.00000    0  107   53.00000   49.00000  7.55%     -    0s
elapsed CPU time: 0.005374 seconds
     0     0   49.00000    0   49   53.00000   49.00000  7.55%     -    0s
H    0     0                      52.0000000   49.00000  5.77%     -    0s
elapsed CPU time: 0.005759 seconds
     0     0   49.00000    0   62   52.00000   49.00000  5.77%     -    0s
elapsed CPU time: 0.005322 seconds
     0     0   49.00000    0   66   52.00000   49.00000  5.77%     -    0s
elapsed CPU time: 0.005253 seconds
     0     0   49.00000    0   58   52.00000   49.00000  5.77%     -    0s
elapsed CPU time: 0.005284 seconds
elapsed CPU time: 0.005371 seconds
     0     2   49.00000    0   57   52.00000   49.00000  5.77%     -    1s
H   78    16                      51.0000000   49.00000  3.92%  19.4    1s

Cutting planes:
  User: 20
  Learned: 3
  Gomory: 10
  Cover: 52
  Implied bound: 23
  MIR: 68
  StrongCG: 4
  GUB cover: 21
  Inf proof: 2
  Zero half: 6
  RLT: 17
  Relax-and-lift: 11
  BQP: 5

Explored 969 nodes (24191 simplex iterations) in 2.04 seconds (0.86 work units)
Thread count was 1 (of 16 available processors)

Solution count 10: 51 52 53 ... 76

Optimal solution found (tolerance 1.00e-04)
Best objective 5.100000000000e+01, best bound 5.100000000000e+01, gap 0.0000%

User-callback calls 3768, time in user-callback 1.53 sec

 sepatime1.3838339337282553e13 4871 17
51.0Stat(MathOptInterface.OPTIMAL, 51.0, 51.0, 0.0, 1.3838339337282553e13, 1.744629, 2.042351007461548, 969, Main.CFLG.LEFPAV, "", #undef)
